NAME: I8313-n43-k4
COMMENT : (Fake et al, No of trucks: 4, Optimal value: )
TYPE : CVRP
DIMENSION : 43
EDGE_WEIGHT_TYPE : EUC_2D
CAPACITY : 19
NODE_COORD_SECTION
1 638 776
2 404 725
3 143 271
4 738 990
5 143 567
6 488 288
7 289 426
8 73 401
9 684 524
10 708 372
11 286 337
12 171 503
13 174 115
14 764 785
15 295 419
16 150 451
17 459 490
18 618 368
19 558 995
20 953 828
21 962 781
22 673 102
23 64 852
24 932 597
25 289 18
26 172 429
27 697 146
28 300 951
29 64 839
30 411 144
31 676 527
32 700 909
33 433 518
34 684 112
35 520 601
36 297 15
37 767 870
38 114 726
39 805 418
40 236 179
41 461 603
42 50 614
43 775 818
DEMAND_SECTION
1 0
2 1
3 2
4 2
5 1
6 2
7 2
8 2
9 1
10 1
11 2
12 1
13 1
14 2
15 2
16 2
17 1
18 1
19 2
20 1
21 2
22 2
23 2
24 2
25 2
26 1
27 1
28 1
29 2
30 1
31 2
32 2
33 1
34 1
35 2
36 1
37 2
38 2
39 2
40 2
41 2
42 2
43 1
DEPOT_SECTION
 1
 -1
 EOF 